NAME : XML100_1176_02
DIMENSION : 101
NB_CLUSTERS : 5
CLUSTERING_ALG : KMeans
CLUSTERING_PARAMS : k(4)
CLUSTERS
1 0
2 3 4 12 16 18 24 25 26 31 37 41 45 46 48 49 54 56 59 64 73 75 88 91 95
3 1 2 6 13 14 23 33 34 47 51 55 61 68 74 76 77 79 81 82 85 87 93 97 99
4 5 8 9 15 20 21 22 28 36 39 40 43 44 52 57 58 63 65 67 71 80 83 92 94 100
5 7 10 11 17 19 27 29 30 32 35 38 42 50 53 60 62 66 69 70 72 78 84 86 89 90 96 98
EOF